c turning on binary mode checking
c parsing input formula with 202048 variables and 780975 clauses
c finished parsing, read 25662813 bytes from proof file
c detected empty clause; start verification via backward checking
c 64790 of 780975 clauses in core                            
c 108524 of 602454 lemmas in core using 1358428 resolution steps
c 0 RAT lemmas in core; 16599 redundant literals in core lemmas
s VERIFIED
c verification time: 7.030 seconds
